(set-option :print-success false)
(set-logic QF_UF)
(declare-sort x97 0)
(declare-sort x124 0)
(declare-fun x126 (x124 x124) x124)
(declare-fun x136 () x124)
(declare-fun x105 () x124)
(declare-fun x159 () x124)
(declare-fun x13 (x124 x124) x124)
(declare-fun x156 () x124)
(declare-fun x9 () x124)
(assert (let ((x131 (= x156 (x126 x156 x156))) (x42 (= x159 (x126 x159 x159))) (x71 (= x105 (x126 x105 x105))) (x43 (= (x126 x136 x136) x136)) (x6 (= (x126 x9 x9) x9))) (and (and (and (and (or x131 (not x131)) (and (and (or (not (= (x126 x156 x136) x156)) x43) (or x6 (not (= (x126 x156 x9) x156)))) (or (not (= x156 (x126 x156 x105))) x71))) (or x42 (not (= x156 (x126 x156 x159))))) (and (and (and (and (or x131 (not (= x136 (x126 x136 x156)))) (and (and (or (not (= (x126 x136 x9) x136)) x6) (or (not x43) x43)) (or x71 (not (= x136 (x126 x136 x105)))))) (or x42 (not (= x136 (x126 x136 x159))))) (and (and (and (and (or x43 (not (= (x126 x9 x136) x9))) (or (not x6) x6)) (or x71 (not (= x9 (x126 x9 x105))))) (or x131 (not (= (x126 x9 x156) x9)))) (or (not (= x9 (x126 x9 x159))) x42))) (and (and (and (and (or (not (= x105 (x126 x105 x136))) x43) (or (not (= x105 (x126 x105 x9))) x6)) (or x71 (not x71))) (or (not (= x105 (x126 x105 x156))) x131)) (or x42 (not (= x105 (x126 x105 x159))))))) (and (and (or (not (= x159 (x126 x159 x156))) x131) (and (or (not (= (x126 x159 x105) x159)) x71) (and (or (not (= (x126 x159 x136) x159)) x43) (or x6 (not (= x159 (x126 x159 x9))))))) (or x42 (not x42))))))
(assert (let ((x51 (x126 x9 x9)) (x19 (x126 x156 x9)) (x25 (x126 x156 x105)) (x5 (x126 x136 x9)) (x1 (x126 x136 x136)) (x120 (x126 x159 x156)) (x75 (x126 x105 x136)) (x3 (x126 x9 x156)) (x90 (x126 x105 x156)) (x32 (x126 x159 x136)) (x64 (x126 x105 x159)) (x81 (x126 x9 x159)) (x117 (x126 x159 x105)) (x119 (x126 x105 x105)) (x67 (x126 x159 x159)) (x55 (x126 x156 x159)) (x65 (x126 x136 x105)) (x37 (x126 x9 x105)) (x76 (x126 x156 x156)) (x39 (x126 x105 x9)) (x113 (x126 x136 x156)) (x122 (x126 x9 x136)) (x33 (x126 x159 x9)) (x146 (x126 x136 x159)) (x78 (x126 x156 x136))) (let ((x42 (not (= x136 x75))) (x130 (not (= x136 x3))) (x142 (not (= x32 x159))) (x139 (not (= x9 x37))) (x141 (not (= x122 x9))) (x44 (not (= x105 x117))) (x6 (not (= x122 x136))) (x116 (not (= x136 x120))) (x63 (not (= x25 x136))) (x125 (not (= x113 x156))) (x96 (not (= x51 x9))) (x52 (not (= x105 x67))) (x109 (not (= x117 x156))) (x7 (not (= x9 x146))) (x158 (not (= x117 x136))) (x58 (not (= x90 x9))) (x41 (not (= x9 x78))) (x128 (not (= x64 x136))) (x68 (not (= x37 x105))) (x133 (not (= x9 x1))) (x148 (not (= x105 x146))) (x106 (not (= x105 x25))) (x83 (not (= x65 x156))) (x48 (not (= x51 x156))) (x85 (not (= x120 x159))) (x132 (not (= x19 x136))) (x87 (not (= x9 x76))) (x15 (not (= x75 x105))) (x54 (not (= x119 x105))) (x79 (not (= x25 x156))) (x2 (not (= x1 x159))) (x135 (not (= x37 x136))) (x43 (not (= x1 x136))) (x101 (not (= x136 x32))) (x34 (not (= x19 x105))) (x72 (not (= x105 x81))) (x94 (not (= x105 x64))) (x4 (not (= x9 x25))) (x66 (not (= x1 x105))) (x16 (not (= x51 x159))) (x114 (not (= x122 x105))) (x115 (not (= x1 x156))) (x145 (not (= x136 x113))) (x61 (not (= x113 x105))) (x110 (not (= x156 x33))) (x127 (not (= x78 x159))) (x8 (not (= x119 x136))) (x30 (not (= x156 x81))) (x57 (not (= x33 x9))) (x137 (not (= x67 x9))) (x129 (not (= x105 x5))) (x17 (not (= x55 x156))) (x12 (not (= x146 x159))) (x84 (not (= x37 x156))) (x21 (not (= x136 x67))) (x123 (not (= x55 x105))) (x29 (not (= x65 x159))) (x56 (not (= x105 x76))) (x31 (not (= x19 x9))) (x77 (not (= x105 x39))) (x22 (not (= x9 x32))) (x70 (not (= x9 x3))) (x49 (not (= x156 x39))) (x18 (not (= x159 x122))) (x74 (not (= x105 x32))) (x134 (not (= x39 x9))) (x46 (not (= x136 x33))) (x143 (not (= x113 x159))) (x20 (not (= x136 x76))) (x98 (not (= x105 x51))) (x153 (not (= x159 x81))) (x93 (not (= x156 x119))) (x26 (not (= x159 x37))) (x121 (not (= x39 x159))) (x138 (not (= x19 x159))) (x102 (not (= x159 x67))) (x35 (not (= x159 x5))) (x140 (not (= x156 x67))) (x80 (not (= x65 x136))) (x112 (not (= x156 x120))) (x62 (not (= x78 x156))) (x53 (not (= x156 x90))) (x24 (not (= x33 x159))) (x73 (not (= x120 x105))) (x36 (not (= x159 x75))) (x99 (not (= x32 x156))) (x118 (not (= x9 x64))) (x86 (not (= x3 x156))) (x38 (not (= x64 x159))) (x111 (not (= x9 x119))) (x107 (not (= x156 x5))) (x155 (not (= x9 x81))) (x45 (not (= x136 x146))) (x14 (not (= x65 x105))) (x108 (not (= x105 x33))) (x50 (not (= x65 x9))) (x144 (not (= x113 x9))) (x91 (not (= x76 x156))) (x149 (not (= x159 x117))) (x40 (not (= x90 x136))) (x88 (not (= x120 x9))) (x152 (not (= x105 x90))) (x59 (not (= x75 x9))) (x100 (not (= x105 x78))) (x47 (not (= x25 x159))) (x154 (not (= x146 x156))) (x103 (not (= x136 x78))) (x27 (not (= x136 x55))) (x157 (not (= x156 x19))) (x151 (not (= x159 x119))) (x82 (not (= x9 x117))) (x23 (not (= x3 x159))) (x69 (not (= x136 x81))) (x104 (not (= x9 x5))) (x150 (not (= x3 x105))) (x71 (not (= x136 x5))) (x89 (not (= x64 x156))) (x147 (not (= x9 x55))) (x10 (not (= x136 x39))) (x131 (not (= x136 x51))) (x95 (not (= x159 x76))) (x28 (not (= x55 x159))) (x92 (not (= x156 x75))) (x60 (not (= x90 x159))) (x11 (not (= x156 x122)))) (or (and (and (and (or x85 x28) (and (or x149 x38) (and (or x142 x12) (or x153 x24)))) (or x102 x102)) (and (and (and (and (or x60 x47) (and (and (or x36 x29) (or x121 x26)) (or x151 x151))) (or x149 x38)) (and (and (or x142 x12) (and (and (and (or x2 x2) (or x35 x18)) (or x36 x29)) (or x127 x143))) (and (or x153 x24) (and (or x23 x138) (and (and (or x18 x35) (or x16 x16)) (or x26 x121)))))) (and (or x85 x28) (and (or x95 x95) (and (and (or x23 x138) (or x143 x127)) (or x47 x60)))))) (or (or (or (and (and (and (or x27 x116) (and (and (or x63 x40) (and (or x132 x130) (or x145 x103))) (or x20 x20))) (and (and (and (or x45 x101) (and (and (and (or x43 x43) (or x6 x71)) (or x42 x80)) (or x103 x145))) (and (and (and (or x10 x135) (and (or x131 x131) (or x71 x6))) (or x130 x132)) (or x46 x69))) (and (and (or x63 x40) (and (and (or x10 x135) (or x42 x80)) (or x8 x8))) (or x128 x158)))) (and (or x21 x21) (and (and (or x128 x158) (and (or x101 x45) (or x46 x69))) (or x27 x116)))) (and (and (and (and (and (and (or x41 x144) (and (and (or x133 x133) (or x141 x104)) (or x50 x59))) (or x7 x22)) (and (and (and (and (or x96 x96) (or x104 x141)) (or x134 x139)) (or x70 x31)) (or x57 x155))) (and (or x82 x118) (and (and (or x111 x111) (and (or x59 x50) (or x134 x139))) (or x4 x58)))) (and (or x147 x88) (and (and (or x4 x58) (and (or x70 x31) (or x41 x144))) (or x87 x87)))) (and (or x137 x137) (and (and (or x82 x118) (and (or x57 x155) (or x22 x7))) (or x147 x88))))) (and (and (and (or x73 x123) (and (or x94 x44) (and (or x148 x74) (or x108 x72)))) (or x52 x52)) (and (and (and (or x94 x44) (and (and (and (or x68 x77) (or x15 x14)) (or x54 x54)) (or x152 x106))) (and (and (or x74 x148) (and (and (or x14 x15) (and (or x114 x129) (or x66 x66))) (or x61 x100))) (and (or x72 x108) (and (or x150 x34) (and (and (or x98 x98) (or x114 x129)) (or x68 x77)))))) (and (or x73 x123) (and (and (and (or x61 x100) (or x150 x34)) (or x106 x152)) (or x56 x56)))))) (and (and (and (or x112 x17) (and (or x91 x91) (and (or x53 x79) (and (or x86 x157) (or x125 x62))))) (and (and (and (and (or x157 x86) (and (and (or x11 x107) (or x48 x48)) (or x84 x49))) (or x30 x110)) (and (and (or x62 x125) (and (and (or x107 x11) (or x115 x115)) (or x92 x83))) (or x99 x154))) (and (or x109 x89) (and (or x79 x53) (and (or x93 x93) (and (or x83 x92) (or x49 x84))))))) (and (and (and (or x89 x109) (and (or x30 x110) (or x154 x99))) (or x17 x112)) (or x140 x140))))))))
(assert (let ((x6 (x126 x9 x136)) (x43 (x126 x136 x136)) (x128 (x126 x9 x159)) (x145 (x126 x136 x105)) (x101 (x126 x9 x156)) (x131 (x126 x156 x136)) (x158 (x126 x136 x159)) (x116 (x126 x105 x159)) (x42 (x126 x159 x136)) (x21 (x126 x159 x159)) (x103 (x126 x159 x9)) (x63 (x126 x156 x105)) (x69 (x126 x159 x156)) (x132 (x126 x9 x105)) (x27 (x126 x156 x159)) (x135 (x126 x105 x9)) (x130 (x126 x105 x105)) (x40 (x126 x159 x105)) (x46 (x126 x156 x156)) (x20 (x126 x136 x156)) (x10 (x126 x9 x9)) (x80 (x126 x136 x9)) (x45 (x126 x105 x156)) (x71 (x126 x105 x136)) (x8 (x126 x156 x9))) (and (and (and (not (= x69 x21)) (and (and (and (and (and (and (and (and (not (= x103 x42)) (not (= x40 x42))) (not (= x69 x42))) (not (= x21 x42))) (not (= x103 x40))) (not (= x103 x69))) (not (= x103 x21))) (not (= x69 x40))) (not (= x40 x21)))) (and (and (and (and (not (= x130 x116)) (and (not (= x45 x130)) (and (and (and (not (= x130 x135)) (and (and (and (not (= x130 x71)) (not (= x71 x135))) (not (= x45 x71))) (not (= x116 x71)))) (not (= x45 x135))) (not (= x135 x116))))) (not (= x45 x116))) (and (and (not (= x128 x101)) (and (and (not (= x132 x101)) (and (and (not (= x101 x10)) (and (and (not (= x128 x6)) (and (not (= x6 x101)) (and (not (= x6 x10)) (not (= x6 x132))))) (not (= x132 x10)))) (not (= x10 x128)))) (not (= x132 x128)))) (and (not (= x158 x20)) (and (and (not (= x20 x145)) (and (and (and (not (= x145 x80)) (and (not (= x158 x43)) (and (and (not (= x145 x43)) (not (= x80 x43))) (not (= x20 x43))))) (not (= x20 x80))) (not (= x80 x158)))) (not (= x145 x158)))))) (and (and (and (not (= x63 x46)) (and (and (and (and (and (not (= x131 x46)) (and (not (= x131 x63)) (not (= x131 x8)))) (not (= x131 x27))) (not (= x8 x63))) (not (= x46 x8))) (not (= x27 x8)))) (not (= x27 x63))) (not (= x27 x46))))) (and (and (not (= x27 x21)) (and (not (= x21 x116)) (and (not (= x116 x27)) (and (and (and (and (and (not (= x27 x158)) (and (not (= x158 x116)) (not (= x158 x128)))) (not (= x21 x158))) (not (= x128 x116))) (not (= x128 x27))) (not (= x128 x21)))))) (and (and (and (not (= x45 x69)) (and (not (= x45 x46)) (and (and (not (= x46 x101)) (and (not (= x101 x45)) (and (not (= x20 x69)) (and (not (= x46 x20)) (and (not (= x20 x45)) (not (= x101 x20))))))) (not (= x101 x69))))) (not (= x46 x69))) (and (and (and (and (and (and (not (= x10 x103)) (and (and (and (not (= x80 x103)) (and (not (= x80 x8)) (and (not (= x80 x10)) (not (= x80 x135))))) (not (= x135 x10))) (not (= x8 x10)))) (not (= x8 x135))) (not (= x135 x103))) (not (= x103 x8))) (and (not (= x42 x131)) (and (not (= x42 x71)) (and (and (and (and (not (= x6 x71)) (and (not (= x43 x42)) (and (and (not (= x43 x6)) (not (= x43 x71))) (not (= x43 x131))))) (not (= x6 x131))) (not (= x42 x6))) (not (= x131 x71)))))) (and (not (= x40 x63)) (and (and (and (not (= x40 x132)) (and (not (= x63 x132)) (and (and (and (and (not (= x132 x145)) (not (= x145 x130))) (not (= x145 x63))) (not (= x40 x145))) (not (= x132 x130))))) (not (= x63 x130))) (not (= x130 x40))))))))))
(assert (or (or (or (and (not (= (x126 x159 (x126 x105 x159)) x159)) (and (not (= x156 (x126 x156 (x126 x105 x156)))) (and (and (not (= (x126 x9 (x126 x105 x9)) x9)) (not (= (x126 x136 (x126 x105 x136)) x136))) (not (= x105 (x126 x105 (x126 x105 x105))))))) (or (and (and (and (and (not (= x136 (x126 x136 (x126 x9 x136)))) (not (= (x126 x9 (x126 x9 x9)) x9))) (not (= x105 (x126 x105 (x126 x9 x105))))) (not (= x156 (x126 x156 (x126 x9 x156))))) (not (= x159 (x126 x159 (x126 x9 x159))))) (and (not (= (x126 x159 (x126 x136 x159)) x159)) (and (not (= x156 (x126 x156 (x126 x136 x156)))) (and (not (= (x126 x105 (x126 x136 x105)) x105)) (and (not (= x136 (x126 x136 (x126 x136 x136)))) (not (= (x126 x9 (x126 x136 x9)) x9)))))))) (and (not (= x159 (x126 x159 (x126 x156 x159)))) (and (not (= (x126 x156 (x126 x156 x156)) x156)) (and (and (not (= x136 (x126 x136 (x126 x156 x136)))) (not (= x9 (x126 x9 (x126 x156 x9))))) (not (= x105 (x126 x105 (x126 x156 x105)))))))) (and (and (and (and (not (= (x126 x9 (x126 x159 x9)) x9)) (not (= (x126 x136 (x126 x159 x136)) x136))) (not (= x105 (x126 x105 (x126 x159 x105))))) (not (= x156 (x126 x156 (x126 x159 x156))))) (not (= x159 (x126 x159 (x126 x159 x159)))))))
(assert (or (= (x126 x159 x159) x159) (or (= (x126 x156 x156) x156) (or (= (x126 x105 x105) x105) (or (= x9 (x126 x9 x9)) (= (x126 x136 x136) x136))))))
(assert (or (and (and (not (= x159 (x126 x156 (x126 x159 x156)))) (and (and (not (= (x126 x9 (x126 x159 x9)) x159)) (not (= (x126 x136 (x126 x159 x136)) x159))) (not (= x159 (x126 x105 (x126 x159 x105)))))) (not (= x159 (x126 x159 (x126 x159 x159))))) (or (and (not (= (x126 x159 (x126 x156 x159)) x156)) (and (not (= x156 (x126 x156 (x126 x156 x156)))) (and (and (not (= (x126 x136 (x126 x156 x136)) x156)) (not (= x156 (x126 x9 (x126 x156 x9))))) (not (= (x126 x105 (x126 x156 x105)) x156))))) (or (and (not (= x105 (x126 x159 (x126 x105 x159)))) (and (not (= (x126 x156 (x126 x105 x156)) x105)) (and (and (not (= x105 (x126 x9 (x126 x105 x9)))) (not (= (x126 x136 (x126 x105 x136)) x105))) (not (= (x126 x105 (x126 x105 x105)) x105))))) (or (and (not (= x136 (x126 x159 (x126 x136 x159)))) (and (not (= x136 (x126 x156 (x126 x136 x156)))) (and (not (= (x126 x105 (x126 x136 x105)) x136)) (and (not (= x136 (x126 x9 (x126 x136 x9)))) (not (= (x126 x136 (x126 x136 x136)) x136)))))) (and (not (= x9 (x126 x159 (x126 x9 x159)))) (and (and (and (not (= x9 (x126 x9 (x126 x9 x9)))) (not (= x9 (x126 x136 (x126 x9 x136))))) (not (= (x126 x105 (x126 x9 x105)) x9))) (not (= (x126 x156 (x126 x9 x156)) x9)))))))))
(assert (let ((x128 (x126 x9 x159)) (x133 (x126 x159 x9)) (x68 (x126 x159 x156)) (x154 (x126 x159 x159)) (x42 (x126 x136 x156)) (x80 (x126 x136 x159)) (x81 (x126 x105 x105)) (x8 (x126 x105 x136)) (x71 (x126 x136 x9)) (x69 (x126 x9 x105)) (x6 (x126 x136 x136)) (x158 (x126 x9 x156)) (x131 (x126 x136 x105)) (x103 (x126 x156 x136)) (x114 (x126 x156 x156)) (x129 (x126 x156 x159)) (x119 (x126 x156 x105)) (x111 (x126 x159 x105)) (x59 (x126 x105 x159)) (x135 (x126 x9 x136)) (x145 (x126 x159 x136)) (x1 (x126 x156 x9)) (x46 (x126 x9 x9)) (x33 (x126 x105 x156)) (x21 (x126 x105 x9))) (let ((x78 (= x156 x46)) (x107 (= x159 x33)) (x58 (= x156 x81)) (x32 (= x159 x71)) (x20 (= x71 x136)) (x142 (= x145 x159)) (x16 (= x128 x105)) (x37 (= x136 x69)) (x90 (= x8 x105)) (x57 (= x1 x136)) (x23 (= x128 x156)) (x112 (= x9 x154)) (x157 (= x136 x129)) (x36 (= x59 x105)) (x67 (= x103 x9)) (x4 (= x156 x69)) (x44 (= x156 x33)) (x127 (= x156 x111)) (x48 (= x159 x114)) (x29 (= x105 x129)) (x77 (= x9 x114)) (x139 (= x9 x81)) (x11 (= x159 x158)) (x47 (= x156 x59)) (x134 (= x69 x9)) (x14 (= x33 x9)) (x99 (= x9 x68)) (x30 (= x9 x128)) (x150 (= x158 x105)) (x27 (= x46 x9)) (x82 (= x42 x136)) (x125 (= x59 x136)) (x65 (= x105 x46)) (x72 (= x158 x156)) (x74 (= x1 x156)) (x138 (= x80 x156)) (x87 (= x21 x159)) (x155 (= x136 x119)) (x96 (= x131 x136)) (x91 (= x9 x111)) (x88 (= x33 x136)) (x89 (= x129 x9)) (x43 (= x136 x6)) (x53 (= x133 x9)) (x28 (= x129 x159)) (x110 (= x80 x9)) (x86 (= x136 x154)) (x104 (= x136 x8)) (x31 (= x156 x21)) (x12 (= x133 x159)) (x120 (= x69 x159)) (x109 (= x9 x59)) (x64 (= x105 x131)) (x22 (= x81 x159)) (x61 (= x105 x119)) (x152 (= x114 x105)) (x94 (= x156 x114)) (x40 (= x135 x136)) (x108 (= x156 x42)) (x106 (= x33 x105)) (x101 (= x46 x136)) (x49 (= x111 x136)) (x117 (= x69 x105)) (x79 (= x145 x9)) (x51 (= x21 x136)) (x122 (= x71 x105)) (x147 (= x136 x114)) (x100 (= x1 x105)) (x132 (= x6 x105)) (x38 (= x128 x159)) (x55 (= x131 x159)) (x95 (= x156 x154)) (x130 (= x156 x6)) (x34 (= x42 x105)) (x92 (= x136 x145)) (x56 (= x103 x156)) (x140 (= x105 x133)) (x84 (= x68 x136)) (x116 (= x9 x71)) (x118 (= x136 x158)) (x137 (= x1 x9)) (x148 (= x156 x119)) (x5 (= x105 x135)) (x54 (= x105 x103)) (x151 (= x133 x156)) (x52 (= x119 x159)) (x63 (= x159 x6)) (x83 (= x136 x133)) (x73 (= x159 x103)) (x18 (= x68 x105)) (x85 (= x159 x59)) (x26 (= x156 x145)) (x19 (= x9 x21)) (x35 (= x105 x80)) (x3 (= x8 x9)) (x39 (= x81 x136)) (x149 (= x80 x159)) (x50 (= x131 x9)) (x144 (= x8 x156)) (x10 (= x9 x6)) (x62 (= x128 x136)) (x70 (= x131 x156)) (x146 (= x159 x135)) (x93 (= x136 x80)) (x41 (= x81 x105)) (x123 (= x159 x1)) (x66 (= x9 x119)) (x98 (= x42 x9)) (x143 (= x68 x156)) (x102 (= x159 x154)) (x153 (= x159 x68)) (x121 (= x154 x105)) (x75 (= x156 x135)) (x17 (= x105 x145)) (x2 (= x105 x111)) (x60 (= x156 x129)) (x45 (= x9 x135)) (x25 (= x21 x105)) (x141 (= x46 x159)) (x24 (= x159 x111)) (x76 (= x8 x159)) (x7 (= x136 x103)) (x115 (= x42 x159)) (x15 (= x158 x9)) (x113 (= x71 x156))) (and (and (and (and (and (and (and (or (or (or x144 (or x75 x130)) x56) x26) (or (or (or x70 (or x113 x130)) x108) x138)) (and (and (or (or x34 (or (or x122 x132) x64)) x35) (or (or x54 (or (or x132 x5) x90)) x17)) (and (and (or x110 (or x98 (or (or x10 x116) x50))) (or (or (or (or x10 x45) x3) x67) x79)) (and (or (or x7 (or x104 (or x40 x43))) x92) (or (or x82 (or (or x20 x43) x96)) x93))))) (and (or (or (or x55 (or x63 x32)) x115) x149) (or (or x73 (or (or x146 x63) x76)) x142))) (and (and (or (or x11 (or x120 (or x141 x146))) x38) (or (or (or (or x32 x141) x87) x123) x12)) (and (and (and (or (or x100 (or (or x65 x122) x25)) x140) (or (or (or (or x65 x5) x117) x150) x16)) (and (and (or (or (or x51 (or x20 x101)) x57) x83) (or (or (or x37 (or x40 x101)) x118) x62)) (and (or x30 (or x15 (or x134 (or x27 x45)))) (or x53 (or (or x19 (or x27 x116)) x137))))) (and (or x23 (or x72 (or (or x75 x78) x4))) (or x151 (or (or (or x78 x113) x31) x74)))))) (and (and (or (or (or x22 (or x120 x55)) x52) x24) (or (or x107 (or (or x87 x76) x22)) x85)) (and (and (and (and (or (or x66 (or (or x50 x134) x139)) x91) (or (or (or x139 (or x3 x19)) x14) x109)) (and (or x49 (or (or (or x96 x37) x39) x155)) (or (or (or (or x51 x104) x39) x88) x125))) (and (or x36 (or (or (or x25 x90) x41) x106)) (or (or x61 (or (or x64 x117) x41)) x2))) (and (or (or (or (or x70 x4) x58) x148) x127) (or (or (or x58 (or x144 x31)) x44) x47))))) (and (and (or (or (or x52 (or x123 x73)) x48) x28) (or x153 (or x48 (or (or x115 x11) x107)))) (and (and (and (or x29 (or x152 (or x61 (or x100 x54)))) (or (or (or x106 (or x34 x150)) x152) x18)) (and (and (or x89 (or x77 (or (or x67 x137) x66))) (or (or x77 (or x14 (or x15 x98))) x99)) (and (or x157 (or x147 (or x155 (or x7 x57)))) (or x84 (or (or x88 (or x82 x118)) x147))))) (and (or (or (or x148 (or x74 x56)) x94) x60) (or x143 (or x94 (or x44 (or x108 x72)))))))) (and (and (or x102 (or (or (or x38 x149) x85) x28)) (or x102 (or x153 (or (or x142 x12) x24)))) (and (and (or (or (or (or x26 x151) x127) x143) x95) (or x95 (or x60 (or (or x138 x23) x47)))) (and (and (or x121 (or (or (or x16 x35) x36) x29)) (or (or (or (or x140 x17) x2) x18) x121)) (and (and (or x86 (or (or (or x93 x62) x125) x157)) (or x86 (or (or x49 (or x83 x92)) x84))) (and (or (or (or (or x30 x110) x109) x89) x112) (or (or x99 (or x91 (or x79 x53))) x112))))))))))
(assert (or (and (and (and (not (= (x126 (x126 x105 x159) x159) x105)) (and (not (= x136 (x126 (x126 x136 x159) x159))) (not (= x9 (x126 (x126 x9 x159) x159))))) (not (= (x126 (x126 x156 x159) x159) x156))) (not (= (x126 (x126 x159 x159) x159) x159))) (or (or (or (and (not (= x159 (x126 (x126 x159 x136) x136))) (and (and (and (not (= x136 (x126 (x126 x136 x136) x136))) (not (= (x126 (x126 x9 x136) x136) x9))) (not (= (x126 (x126 x105 x136) x136) x105))) (not (= (x126 (x126 x156 x136) x136) x156)))) (and (not (= x159 (x126 (x126 x159 x9) x9))) (and (not (= x156 (x126 (x126 x156 x9) x9))) (and (and (not (= (x126 (x126 x136 x9) x9) x136)) (not (= x9 (x126 (x126 x9 x9) x9)))) (not (= x105 (x126 (x126 x105 x9) x9))))))) (and (not (= (x126 (x126 x159 x105) x105) x159)) (and (not (= x156 (x126 (x126 x156 x105) x105))) (and (not (= x105 (x126 (x126 x105 x105) x105))) (and (not (= x136 (x126 (x126 x136 x105) x105))) (not (= x9 (x126 (x126 x9 x105) x105)))))))) (and (and (not (= x156 (x126 (x126 x156 x156) x156))) (and (and (not (= x9 (x126 (x126 x9 x156) x156))) (not (= (x126 (x126 x136 x156) x156) x136))) (not (= x105 (x126 (x126 x105 x156) x156))))) (not (= (x126 (x126 x159 x156) x156) x159))))))
(assert (let ((x71 (x126 x9 x9)) (x80 (x126 x159 x159)) (x6 (x126 x136 x136)) (x131 (x126 x105 x105)) (x42 (x126 x156 x156))) (let ((x135 (= x71 x9)) (x130 (= x105 x131)) (x40 (= x80 x159)) (x43 (= x136 x6)) (x63 (= x156 x42))) (let ((x103 (or (or (= x105 x42) (or x130 (or (= x105 x71) (= x105 x6)))) (= x80 x105))) (x10 (or (= x80 x136) (or (or (= x136 x131) (or (= x136 x71) x43)) (= x136 x42)))) (x132 (or x40 (or (= x42 x159) (or (or (= x6 x159) (= x159 x71)) (= x131 x159))))) (x145 (or (= x80 x156) (or x63 (or (= x156 x131) (or (= x156 x71) (= x6 x156)))))) (x8 (or (or (or (or (= x6 x9) x135) (= x131 x9)) (= x42 x9)) (= x80 x9)))) (and (and (and (and (and (and (or (not (= (x126 x9 x156) x9)) x145) (and (and (or x8 (not x135)) (or (not (= (x126 x9 x136) x9)) x10)) (or (not (= (x126 x9 x105) x9)) x103))) (or x132 (not (= x9 (x126 x9 x159))))) (and (or (not (= x136 (x126 x136 x159))) x132) (and (or (not (= (x126 x136 x156) x136)) x145) (and (and (or (not (= (x126 x136 x9) x136)) x8) (or x10 (not x43))) (or x103 (not (= (x126 x136 x105) x136))))))) (and (and (or (not (= (x126 x105 x156) x105)) x145) (and (and (or x10 (not (= (x126 x105 x136) x105))) (or x8 (not (= (x126 x105 x9) x105)))) (or x103 (not x130)))) (or (not (= (x126 x105 x159) x105)) x132))) (and (or (not (= x156 (x126 x156 x159))) x132) (and (and (or x103 (not (= x156 (x126 x156 x105)))) (and (or (not (= x156 (x126 x156 x136))) x10) (or (not (= x156 (x126 x156 x9))) x8))) (or (not x63) x145)))) (and (and (or x145 (not (= x159 (x126 x159 x156)))) (and (and (or (not (= x159 (x126 x159 x9))) x8) (or (not (= x159 (x126 x159 x136))) x10)) (or x103 (not (= x159 (x126 x159 x105)))))) (or x132 (not x40))))))))
(assert (or (and (= x159 (x126 (x126 x159 x159) x159)) (and (and (and (= (x126 (x126 x9 x159) x159) x9) (= x136 (x126 (x126 x136 x159) x159))) (= x105 (x126 (x126 x105 x159) x159))) (= x156 (x126 (x126 x156 x159) x159)))) (or (and (= (x126 (x126 x159 x156) x156) x159) (and (= (x126 (x126 x156 x156) x156) x156) (and (= x105 (x126 (x126 x105 x156) x156)) (and (= x136 (x126 (x126 x136 x156) x156)) (= (x126 (x126 x9 x156) x156) x9))))) (or (and (= (x126 (x126 x159 x105) x105) x159) (and (and (and (= x136 (x126 (x126 x136 x105) x105)) (= x9 (x126 (x126 x9 x105) x105))) (= x105 (x126 (x126 x105 x105) x105))) (= x156 (x126 (x126 x156 x105) x105)))) (or (and (and (and (= x105 (x126 (x126 x105 x136) x136)) (and (= x9 (x126 (x126 x9 x136) x136)) (= (x126 (x126 x136 x136) x136) x136))) (= x156 (x126 (x126 x156 x136) x136))) (= (x126 (x126 x159 x136) x136) x159)) (and (= (x126 (x126 x159 x9) x9) x159) (and (and (= x105 (x126 (x126 x105 x9) x9)) (and (= x9 (x126 (x126 x9 x9) x9)) (= (x126 (x126 x136 x9) x9) x136))) (= (x126 (x126 x156 x9) x9) x156))))))))
(assert (or (or (or (and (not (= (x126 (x126 x159 x105) x159) x105)) (and (not (= x105 (x126 (x126 x156 x105) x156))) (and (not (= x105 (x126 (x126 x105 x105) x105))) (and (not (= (x126 (x126 x9 x105) x9) x105)) (not (= x105 (x126 (x126 x136 x105) x136))))))) (or (and (not (= (x126 (x126 x159 x9) x159) x9)) (and (and (and (not (= x9 (x126 (x126 x136 x9) x136))) (not (= (x126 (x126 x9 x9) x9) x9))) (not (= (x126 (x126 x105 x9) x105) x9))) (not (= x9 (x126 (x126 x156 x9) x156))))) (and (not (= x136 (x126 (x126 x159 x136) x159))) (and (and (not (= (x126 (x126 x105 x136) x105) x136)) (and (not (= x136 (x126 (x126 x136 x136) x136))) (not (= (x126 (x126 x9 x136) x9) x136)))) (not (= x136 (x126 (x126 x156 x136) x156))))))) (and (and (not (= (x126 (x126 x156 x156) x156) x156)) (and (not (= x156 (x126 (x126 x105 x156) x105))) (and (not (= (x126 (x126 x136 x156) x136) x156)) (not (= x156 (x126 (x126 x9 x156) x9)))))) (not (= x156 (x126 (x126 x159 x156) x159))))) (and (and (and (and (not (= x159 (x126 (x126 x9 x159) x9))) (not (= (x126 (x126 x136 x159) x136) x159))) (not (= x159 (x126 (x126 x105 x159) x105)))) (not (= x159 (x126 (x126 x156 x159) x156)))) (not (= x159 (x126 (x126 x159 x159) x159))))))
(assert (let ((x132 (x126 x105 x9)) (x45 (x126 x156 x105)) (x135 (x126 x9 x105)) (x101 (x126 x156 x9)) (x69 (x126 x156 x159)) (x42 (x126 x136 x159)) (x103 (x126 x9 x159)) (x130 (x126 x105 x105)) (x158 (x126 x159 x136)) (x145 (x126 x105 x136)) (x131 (x126 x136 x156)) (x63 (x126 x105 x156)) (x46 (x126 x156 x156)) (x128 (x126 x159 x9)) (x20 (x126 x156 x136)) (x27 (x126 x159 x156)) (x40 (x126 x105 x159)) (x43 (x126 x136 x136)) (x80 (x126 x9 x136)) (x8 (x126 x9 x156)) (x116 (x126 x159 x105)) (x71 (x126 x136 x105)) (x10 (x126 x9 x9)) (x6 (x126 x136 x9)) (x21 (x126 x159 x159))) (and (and (and (and (and (and (and (and (or (or (or (= x43 x105) (or (= x43 x9) (= x43 x136))) (= x156 x43)) (= x43 x159)) (or (= x6 x159) (or (= x156 x6) (or (= x6 x105) (or (= x6 x136) (= x9 x6)))))) (or (or (or (= x71 x105) (or (= x71 x9) (= x136 x71))) (= x156 x71)) (= x159 x71))) (or (or (or (= x105 x131) (or (= x131 x136) (= x131 x9))) (= x131 x156)) (= x131 x159))) (or (= x42 x159) (or (or (= x105 x42) (or (= x9 x42) (= x136 x42))) (= x42 x156)))) (and (or (= x103 x159) (or (= x156 x103) (or (or (= x103 x9) (= x103 x136)) (= x105 x103)))) (and (and (or (or (= x156 x135) (or (= x105 x135) (or (= x135 x9) (= x136 x135)))) (= x159 x135)) (and (or (= x159 x10) (or (= x156 x10) (or (= x105 x10) (or (= x10 x136) (= x10 x9))))) (or (= x80 x159) (or (= x80 x156) (or (= x80 x105) (or (= x80 x136) (= x9 x80))))))) (or (or (= x156 x8) (or (= x105 x8) (or (= x9 x8) (= x136 x8)))) (= x8 x159))))) (and (or (or (or (= x105 x40) (or (= x136 x40) (= x40 x9))) (= x40 x156)) (= x159 x40)) (and (or (= x63 x159) (or (= x156 x63) (or (= x63 x105) (or (= x9 x63) (= x136 x63))))) (and (or (or (= x156 x130) (or (or (= x130 x9) (= x136 x130)) (= x130 x105))) (= x130 x159)) (and (or (or (or (or (= x132 x9) (= x132 x136)) (= x105 x132)) (= x132 x156)) (= x159 x132)) (or (= x159 x145) (or (or (= x145 x105) (or (= x9 x145) (= x145 x136))) (= x156 x145)))))))) (and (and (and (and (or (or (= x156 x101) (or (= x105 x101) (or (= x101 x136) (= x9 x101)))) (= x101 x159)) (or (or (= x156 x20) (or (= x20 x105) (or (= x20 x136) (= x20 x9)))) (= x159 x20))) (or (= x45 x159) (or (= x45 x156) (or (or (= x45 x9) (= x136 x45)) (= x105 x45))))) (or (= x46 x159) (or (or (or (= x46 x9) (= x46 x136)) (= x105 x46)) (= x46 x156)))) (or (= x69 x159) (or (or (= x105 x69) (or (= x69 x136) (= x9 x69))) (= x156 x69))))) (and (and (and (or (or (or (= x105 x116) (or (= x9 x116) (= x136 x116))) (= x156 x116)) (= x159 x116)) (and (or (or (= x156 x158) (or (= x158 x105) (or (= x158 x136) (= x158 x9)))) (= x159 x158)) (or (or (= x156 x128) (or (or (= x128 x136) (= x9 x128)) (= x105 x128))) (= x159 x128)))) (or (= x27 x159) (or (= x156 x27) (or (= x27 x105) (or (= x9 x27) (= x136 x27)))))) (or (= x21 x159) (or (or (or (= x9 x21) (= x21 x136)) (= x21 x105)) (= x156 x21)))))))
(assert (let ((x10 (x126 x9 x9)) (x43 (x126 x136 x136)) (x158 (x126 x136 x159)) (x130 (x126 x105 x105)) (x116 (x126 x105 x159)) (x63 (x126 x156 x105)) (x80 (x126 x136 x9)) (x27 (x126 x156 x159)) (x128 (x126 x9 x159)) (x145 (x126 x136 x105)) (x21 (x126 x159 x159)) (x101 (x126 x9 x156)) (x45 (x126 x105 x156)) (x40 (x126 x159 x105)) (x69 (x126 x159 x156)) (x135 (x126 x105 x9)) (x132 (x126 x9 x105)) (x8 (x126 x156 x9)) (x42 (x126 x159 x136)) (x71 (x126 x105 x136)) (x6 (x126 x9 x136)) (x103 (x126 x159 x9)) (x46 (x126 x156 x156)) (x131 (x126 x156 x136)) (x20 (x126 x136 x156))) (or (and (not (= x159 (x126 x21 x21))) (and (and (and (not (= (x126 x128 x128) x9)) (not (= (x126 x158 x158) x136))) (not (= (x126 x116 x116) x105))) (not (= (x126 x27 x27) x156)))) (or (and (and (and (and (not (= (x126 x20 x20) x136)) (not (= (x126 x101 x101) x9))) (not (= x105 (x126 x45 x45)))) (not (= (x126 x46 x46) x156))) (not (= x159 (x126 x69 x69)))) (or (or (and (and (not (= x156 (x126 x8 x8))) (and (not (= (x126 x135 x135) x105)) (and (not (= (x126 x80 x80) x136)) (not (= (x126 x10 x10) x9))))) (not (= x159 (x126 x103 x103)))) (and (and (not (= x156 (x126 x131 x131))) (and (not (= x105 (x126 x71 x71))) (and (not (= (x126 x43 x43) x136)) (not (= x9 (x126 x6 x6)))))) (not (= x159 (x126 x42 x42))))) (and (and (not (= x156 (x126 x63 x63))) (and (and (not (= x9 (x126 x132 x132))) (not (= x136 (x126 x145 x145)))) (not (= (x126 x130 x130) x105)))) (not (= x159 (x126 x40 x40)))))))))
(assert (and (and (= x156 (x126 x136 x9)) (and (= x9 (x126 x136 x105)) (= (x126 x105 x105) x136))) (= (x126 x136 x136) x159)))
(assert (or (and (not (= x159 (x126 (x126 x159 x159) x159))) (and (and (and (not (= (x126 (x126 x159 x136) x159) x136)) (not (= x9 (x126 (x126 x159 x9) x159)))) (not (= x105 (x126 (x126 x159 x105) x159)))) (not (= x156 (x126 (x126 x159 x156) x159))))) (or (and (and (not (= (x126 (x126 x156 x156) x156) x156)) (and (and (not (= (x126 (x126 x156 x136) x156) x136)) (not (= x9 (x126 (x126 x156 x9) x156)))) (not (= x105 (x126 (x126 x156 x105) x156))))) (not (= (x126 (x126 x156 x159) x156) x159))) (or (or (and (and (not (= x156 (x126 (x126 x9 x156) x9))) (and (not (= (x126 (x126 x9 x105) x9) x105)) (and (not (= x9 (x126 (x126 x9 x9) x9))) (not (= (x126 (x126 x9 x136) x9) x136))))) (not (= x159 (x126 (x126 x9 x159) x9)))) (and (not (= x159 (x126 (x126 x136 x159) x136))) (and (and (and (not (= (x126 (x126 x136 x136) x136) x136)) (not (= x9 (x126 (x126 x136 x9) x136)))) (not (= x105 (x126 (x126 x136 x105) x136)))) (not (= (x126 (x126 x136 x156) x136) x156))))) (and (not (= x159 (x126 (x126 x105 x159) x105))) (and (not (= x156 (x126 (x126 x105 x156) x105))) (and (not (= (x126 (x126 x105 x105) x105) x105)) (and (not (= (x126 (x126 x105 x136) x105) x136)) (not (= x9 (x126 (x126 x105 x9) x105)))))))))))
(assert (and (and (not (= x105 x159)) (and (not (= x105 x156)) (and (not (= x159 x9)) (and (not (= x156 x9)) (and (and (not (= x136 x159)) (and (and (not (= x9 x136)) (not (= x136 x105))) (not (= x156 x136)))) (not (= x105 x9))))))) (not (= x156 x159))))
(assert (or (and (not (= (x126 x159 (x126 x159 x159)) x159)) (and (and (and (not (= x136 (x126 x159 (x126 x159 x136)))) (not (= (x126 x159 (x126 x159 x9)) x9))) (not (= (x126 x159 (x126 x159 x105)) x105))) (not (= (x126 x159 (x126 x159 x156)) x156)))) (or (or (and (not (= x159 (x126 x105 (x126 x105 x159)))) (and (and (and (not (= x9 (x126 x105 (x126 x105 x9)))) (not (= x136 (x126 x105 (x126 x105 x136))))) (not (= x105 (x126 x105 (x126 x105 x105))))) (not (= (x126 x105 (x126 x105 x156)) x156)))) (or (and (not (= (x126 x9 (x126 x9 x159)) x159)) (and (and (and (not (= x136 (x126 x9 (x126 x9 x136)))) (not (= (x126 x9 (x126 x9 x9)) x9))) (not (= (x126 x9 (x126 x9 x105)) x105))) (not (= x156 (x126 x9 (x126 x9 x156)))))) (and (and (and (not (= (x126 x136 (x126 x136 x105)) x105)) (and (not (= x9 (x126 x136 (x126 x136 x9)))) (not (= x136 (x126 x136 (x126 x136 x136)))))) (not (= (x126 x136 (x126 x136 x156)) x156))) (not (= (x126 x136 (x126 x136 x159)) x159))))) (and (and (not (= x156 (x126 x156 (x126 x156 x156)))) (and (not (= (x126 x156 (x126 x156 x105)) x105)) (and (not (= x9 (x126 x156 (x126 x156 x9)))) (not (= (x126 x156 (x126 x156 x136)) x136))))) (not (= x159 (x126 x156 (x126 x156 x159))))))))
(assert (not (and (and (and (= (x126 x159 x105) x105) (and (= (x126 x159 x9) x159) (and (and (= (x126 x156 x159) x9) (and (= (x126 x156 x156) x156) (and (= (x126 x156 x105) x159) (and (and (and (and (and (= (x126 x105 x105) x136) (and (= x105 (x126 x105 x9)) (and (= x9 (x126 x105 x136)) (and (and (= x105 (x126 x9 x156)) (and (and (and (and (= (x126 x136 x159) x105) (and (= (x126 x136 x156) x136) (and (and (= x156 (x126 x136 x9)) (= x159 (x126 x136 x136))) (= x9 (x126 x136 x105))))) (= x136 (x126 x9 x136))) (= (x126 x9 x9) x9)) (= (x126 x9 x105) x156))) (= x159 (x126 x9 x159)))))) (= x159 (x126 x105 x156))) (= x156 (x126 x105 x159))) (= x105 (x126 x156 x136))) (= (x126 x156 x9) x136))))) (= (x126 x159 x136) x156)))) (= (x126 x159 x156) x9)) (= x136 (x126 x159 x159)))))
(assert (let ((x131 (x126 x156 x156)) (x42 (x126 x159 x159)) (x71 (x126 x105 x105)) (x6 (x126 x9 x9)) (x43 (x126 x136 x136))) (or (and (not (= x159 x42)) (and (not (= x131 x159)) (and (and (not (= x43 x159)) (not (= x159 x6))) (not (= x159 x71))))) (or (or (and (not (= x105 x42)) (and (and (and (not (= x105 x43)) (not (= x6 x105))) (not (= x105 x71))) (not (= x105 x131)))) (or (and (not (= x42 x9)) (and (and (not (= x71 x9)) (and (not (= x6 x9)) (not (= x9 x43)))) (not (= x131 x9)))) (and (and (and (not (= x136 x71)) (and (not (= x136 x43)) (not (= x6 x136)))) (not (= x131 x136))) (not (= x136 x42))))) (and (not (= x156 x42)) (and (not (= x131 x156)) (and (not (= x156 x71)) (and (not (= x43 x156)) (not (= x156 x6))))))))))
(check-sat)
(exit)
